SCIP Status        : problem is solved [optimal solution found]
Total Time         :      88.16
  solving          :      88.14
  presolving       :       0.83 (included in solving)
  reading          :       0.02
  copying          :       0.03 (5 #copies) (minimal 0.00, maximal 0.01, average 0.01)
Original Problem   :
  Problem name     : gastrans582_mild10_95
  Variables        : 2186 (232 binary, 18 integer, 0 implicit integer, 1936 continuous)
  Constraints      : 3732 initial, 3732 maximal
  Objective        : minimize, 0 non-zeros (abs.min = 1e+20, abs.max = -1e+20)
Presolved Problem  :
  Problem name     : t_gastrans582_mild10_95
  Variables        : 1877 (78 binary, 0 integer, 0 implicit integer, 1799 continuous)
  Constraints      : 1016 initial, 1042 maximal
  Objective        : minimize, 0 non-zeros (abs.min = 1e+20, abs.max = -1e+20)
  Nonzeros         : 2699 constraint, 370 clique table
Presolvers         :   ExecTime  SetupTime  Calls  FixedVars   AggrVars   ChgTypes  ChgBounds   AddHoles    DelCons    AddCons   ChgSides   ChgCoefs
  boundshift       :       0.00       0.00      0          0          0          0          0          0          0          0          0          0
  convertinttobin  :       0.00       0.00      0          0          0          0          0          0          0          0          0          0
  domcol           :       0.00       0.00      5          0          0          0          0          0          0          0          0          0
  dualagg          :       0.00       0.00      0          0          0          0          0          0          0          0          0          0
  dualcomp         :       0.00       0.00      5          0          0          0          0          0          0          0          0          0
  dualinfer        :       0.00       0.00      0          0          0          0          0          0          0          0          0          0
  dualsparsify     :       0.00       0.00      1          0          0          0          0          0          0          0          0          0
  gateextraction   :       0.00       0.00     13          0          0          0          0          0          3          0          0          0
  implics          :       0.00       0.00     20          0          4          0          0          0          0          0          0          0
  inttobinary      :       0.00       0.00      0          0          0          0          0          0          0          0          0          0
  qpkktref         :       0.00       0.00      0          0          0          0          0          0          0          0          0          0
  redvub           :       0.00       0.00      0          0          0          0          0          0          0          0          0          0
  sparsify         :       0.00       0.00      1          0          0          0          0          0          0          0          0          0
  stuffing         :       0.00       0.00      0          0          0          0          0          0          0          0          0          0
  trivial          :       0.00       0.00     46        223          0          0          0          0          0          0          0          0
  tworowbnd        :       0.00       0.00      0          0          0          0          0          0          0          0          0          0
  dualfix          :       0.00       0.00     46         59          0          0          0          0          0          0          0          0
  genvbounds       :       0.00       0.00      0          0          0          0          0          0          0          0          0          0
  probing          :       0.08       0.00      5         35         45          0         69          0          0          0          0          0
  pseudoobj        :       0.00       0.00      0          0          0          0          0          0          0          0          0          0
  symmetry         :       0.01       0.00      1          0          0          0          0          0          0          0          0          0
  vbounds          :       0.00       0.00      5          0          6          0          0          0          0          0          0          0
  varbound         :       0.00       0.00     50          0          0          0          4          0        110          2         25         37
  knapsack         :       0.00       0.00     60          0          0          0          0          0          1          1          0          0
  setppc           :       0.00       0.00     60          0          1          0          0          0         17          0          1          1
  linear           :       0.04       0.00     58        267        925          0        945          0       2104          0        289        622
  logicor          :       0.00       0.00     57         16          0          0          0          0         28          0          0        196
  bounddisjunction :       0.00       0.00      0          0          0          0          0          0          0          0          0          0
  nonlinear        :       0.63       0.02     71          0          0          0        822          0        421         -3          0       -856
  benders          :       0.00       0.00      0          0          0          0          0          0          0          0          0          0
  components       :       0.06       0.00      1         16          0          0          0          0         11          0          0          0
  root node        :          -          -      -          0          -          -       1628          -          -          -          -          -
Constraints        :     Number  MaxNumber  #Separate #Propagate    #EnfoLP    #EnfoRelax  #EnfoPS    #Check   #ResProp    Cutoffs    DomReds       Cuts    Applied      Conss   Children
  benderslp        :          0          0          0          0       3539          0          0        144          0          0          0          0          0          0          0
  integral         :          0          0          0          0       3539          0          0        144          0          0        101          0          0          0        452
  varbound         :        134        134         29      12724          0          0          0        139         25          8        932          0          0          0          0
  knapsack         :          1          1         29       2095          0          0          0         48          4          2          4          0          0          0          0
  setppc           :         23+        28         29      11888          0          0          0         48         19          2         77          0          0          0          0
  linear           :        401+       412         29      12718          0          0          0         48         24         96      22523          0          0          0          0
  logicor          :          7+        11         29        438          0          0          0         42          8          7          3          0          0          0          0
  bounddisjunction :          0+         7          0        304          0          0          0          0          0          0          1          0          0          0          0
  nonlinear        :        450        450       5373      12615       3306          0          0         42          0        301     424514      69071      49242          0       1918
  benders          :          0          0          0          0          0          0          0          2          0          0          0          0          0          0          0
  countsols        :          0          0          0          0          0          0          0          2          0          0          0          0          0          0          0
  components       :          0          0          0          0          0          0          0          0          0          0          0          0          0          0          0
Constraint Timings :  TotalTime  SetupTime   Separate  Propagate     EnfoLP     EnfoPS     EnfoRelax   Check    ResProp    SB-Prop
  benderslp        :       0.00       0.00       0.00       0.00       0.00       0.00       0.00       0.00       0.00       0.00
  integral         :       0.21       0.00       0.00       0.00       0.21       0.00       0.00       0.00       0.00       0.00
  varbound         :       0.02       0.00       0.00       0.02       0.00       0.00       0.00       0.00       0.00       0.00
  knapsack         :       0.00       0.00       0.00       0.00       0.00       0.00       0.00       0.00       0.00       0.00
  setppc           :       0.01       0.00       0.00       0.01       0.00       0.00       0.00       0.00       0.00       0.00
  linear           :       0.12       0.00       0.00       0.11       0.00       0.00       0.00       0.00       0.00       0.00
  logicor          :       0.00       0.00       0.00       0.00       0.00       0.00       0.00       0.00       0.00       0.00
  bounddisjunction :       0.00       0.00       0.00       0.00       0.00       0.00       0.00       0.00       0.00       0.00
  nonlinear        :      19.08       0.02      10.57       2.15       6.31       0.00       0.00       0.03       0.00       0.01
  benders          :       0.00       0.00       0.00       0.00       0.00       0.00       0.00       0.00       0.00       0.00
  countsols        :       0.00       0.00       0.00       0.00       0.00       0.00       0.00       0.00       0.00       0.00
  components       :       0.00       0.00       0.00       0.00       0.00       0.00       0.00       0.00       0.00       0.00
Propagators        : #Propagate   #ResProp    Cutoffs    DomReds
  dualfix          :         13          0          0          0
  genvbounds       :       5087          0          7       4414
  nlobbt           :          0          0          0          0
  obbt             :         10          0          0        119
  probing          :          0          0          0          0
  pseudoobj        :          0          0          0          0
  redcost          :          0          0          0          0
  rootredcost      :          0          0          0          0
  symmetry         :          0          0          0          0
  vbounds          :       2192          0          0          0
Propagator Timings :  TotalTime  SetupTime   Presolve  Propagate    ResProp    SB-Prop
  dualfix          :       0.00       0.00       0.00       0.00       0.00       0.00
  genvbounds       :       0.04       0.00       0.00       0.04       0.00       0.00
  nlobbt           :       0.00       0.00       0.00       0.00       0.00       0.00
  obbt             :       5.91       0.00       0.00       5.91       0.00       0.00
  probing          :       0.08       0.00       0.08       0.00       0.00       0.00
  pseudoobj        :       0.00       0.00       0.00       0.00       0.00       0.00
  redcost          :       0.00       0.00       0.00       0.00       0.00       0.00
  rootredcost      :       0.00       0.00       0.00       0.00       0.00       0.00
  symmetry         :       0.01       0.00       0.01       0.00       0.00       0.00
  vbounds          :       0.01       0.00       0.00       0.01       0.00       0.00
Conflict Analysis  :       Time      Calls    Success    DomReds  Conflicts   Literals    Reconvs ReconvLits   Dualrays   Nonzeros   LP Iters   (pool size: [10000,10000])
  propagation      :       0.00         26         15          -         16        3.0          2        4.5          -          -          -
  infeasible LP    :       0.10        602         15          -         10        2.3          2        2.5         15        5.2          0
  bound exceed. LP :       0.00          0          0          -          0        0.0          0        0.0          0        0.0          0
  strong branching :       0.00          0          0          -          0        0.0          0        0.0          -          -          0
  pseudo solution  :       0.00          0          0          -          0        0.0          0        0.0          -          -          -
  applied globally :       0.00          -          -          0         15        2.5          -          -         10          -          -
  applied locally  :          -          -          -          0          0        0.0          -          -          5          -          -
Separators         :   ExecTime  SetupTime      Calls  RootCalls    Cutoffs    DomReds  FoundCuts ViaPoolAdd  DirectAdd    Applied ViaPoolApp  DirectApp      Conss
  cut pool         :       0.02          -        727         64          -          -       2619       2357          -          -          -          -          -    (maximal pool size:       2428)
  aggregation      :       0.38       0.00         59         29          0          0       2045       1264        339        279        194         85          0
  > cmir           :          -          -          -          -          -          -          -       1115        203        182        142         40          -
  > flowcover      :          -          -          -          -          -          -          -        145         89         73         51         22          -
  > knapsackcover  :          -          -          -          -          -          -          -          4         47         24          1         23          -
  cgmip            :       0.00       0.00          0          0          0          0          0          0          0          0          0          0          0
  clique           :       0.00       0.00         29         29          0          0          0          0          0          0          0          0          0
  closecuts        :       0.00       0.00          0          0          0          0          0          0          0          0          0          0          0
  convexproj       :       0.00       0.00          0          0          0          0          0          0          0          0          0          0          0
  disjunctive      :       0.00       0.00          0          0          0          0          0          0          0          0          0          0          0
  eccuts           :       0.00       0.00          0          0          0          0          0          0          0          0          0          0          0
  gauge            :       0.00       0.00          0          0          0          0          0          0          0          0          0          0          0
  gomory           :       0.02       0.00         39         10          0          0        286        100        149         87         33         54          0
  > gomorymi       :          -          -          -          -          -          -          -         98        149         87         33         54          -
  > strongcg       :          -          -          -          -          -          -          -          2          0          0          0          0          -
  impliedbounds    :       0.01       0.00         59         29          0          0        544        702          0         82         82          0          0
  interminor       :       0.00       0.00          0          0          0          0          0          0          0          0          0          0          0
  intobj           :       0.00       0.00          0          0          0          0          0          0          0          0          0          0          0
  mcf              :       0.00       0.00          1          1          0          0          0          0          0          0          0          0          0
  minor            :       0.00       0.00          0          0          0          0          0          0          0          0          0          0          0
  mixing           :       0.02       0.00         94         29          0          0        231        291          0         78         78          0          0
  oddcycle         :       0.00       0.00          0          0          0          0          0          0          0          0          0          0          0
  rapidlearning    :       0.00       0.00          0          0          0          0          0          0          0          0          0          0          0
  rlt              :       0.00       0.00         10         10          0          0          0          0          0          0          0          0          0
  zerohalf         :       0.04       0.00         49         20          0          0          7          0          7          1          0          1          0
Cutselectors       :   ExecTime  SetupTime      Calls  RootCalls   Selected     Forced   Filtered  RootSelec   RootForc   RootFilt 
  hybrid           :       0.05       0.00       4671         36      52836         95       7531       1237          0       1753
Pricers            :   ExecTime  SetupTime      Calls       Vars
  problem variables:       0.00          -          0          0
Branching Rules    :   ExecTime  SetupTime   BranchLP  BranchExt   BranchPS    Cutoffs    DomReds       Cuts      Conss   Children
  allfullstrong    :       0.00       0.00          0          0          0          0          0          0          0          0
  cloud            :       0.00       0.00          0          0          0          0          0          0          0          0
  distribution     :       0.00       0.00          0          0          0          0          0          0          0          0
  fullstrong       :       0.00       0.00          0          0          0          0          0          0          0          0
  inference        :       0.00       0.00          0          0          0          0          0          0          0          0
  leastinf         :       0.00       0.00          0          0          0          0          0          0          0          0
  lookahead        :       0.00       0.00          0          0          0          0          0          0          0          0
  mostinf          :       0.00       0.00          0          0          0          0          0          0          0          0
  multaggr         :       0.00       0.00          0          0          0          0          0          0          0          0
  nodereopt        :       0.00       0.00          0          0          0          0          0          0          0          0
  pscost           :       0.00       0.00          0          0          0          0          0          0          0          0
  random           :       0.00       0.00          0          0          0          0          0          0          0          0
  relpscost        :       0.20       0.00        233          0          0          0        101          0          0        452
  vanillafullstrong:       0.00       0.00          0          0          0          0          0          0          0          0
Primal Heuristics  :   ExecTime  SetupTime      Calls      Found       Best
  LP solutions     :       0.00          -          -          0          0
  relax solutions  :       0.00          -          -          0          0
  pseudo solutions :       0.00          -          -          0          0
  strong branching :       0.00          -          -          0          0
  actconsdiving    :       0.00       0.00          0          0          0
  adaptivediving   :       0.03       0.00          2          0          0
  alns             :       2.33       0.00          3          0          0
  bound            :       0.00       0.00          0          0          0
  clique           :       0.07       0.00          1          0          0
  coefdiving       :       0.00       0.00          0          0          0
  completesol      :       0.00       0.00          0          0          0
  conflictdiving   :       0.04       0.00          2          0          0
  crossover        :       0.00       0.00          0          0          0
  dins             :       0.00       0.00          0          0          0
  distributiondivin:       0.07       0.00          1          0          0
  dps              :       0.00       0.00          0          0          0
  dualval          :       0.00       0.00          0          0          0
  farkasdiving     :       0.00       0.00          0          0          0
  feaspump         :       0.04       0.00          1          0          0
  fixandinfer      :       0.00       0.00          0          0          0
  fracdiving       :       0.02       0.00          2          0          0
  gins             :       0.00       0.00          0          0          0
  guideddiving     :       0.00       0.00          0          0          0
  indicator        :       0.00       0.00          0          0          0
  indicatordiving  :       0.00       0.00          0          0          0
  intdiving        :       0.00       0.00          0          0          0
  intshifting      :       0.01       0.00          4          0          0
  linesearchdiving :       0.02       0.00          1          0          0
  localbranching   :       0.00       0.00          0          0          0
  locks            :       0.01       0.00          1          0          0
  lpface           :       0.01       0.00          0          0          0
  mpec             :      29.24       0.00         10          1          1
  multistart       :       0.00       0.00          0          0          0
  mutation         :       0.00       0.00          0          0          0
  nlpdiving        :       0.70       0.00          1          0          0
  objpscostdiving  :       0.02       0.00          1          0          0
  octane           :       0.00       0.00          0          0          0
  ofins            :       0.00       0.00          0          0          0
  oneopt           :       0.00       0.00          0          0          0
  padm             :       0.00       0.00          0          0          0
  proximity        :       0.00       0.00          0          0          0
  pscostdiving     :       0.04       0.00          2          0          0
  randrounding     :       0.18       0.00         66          0          0
  rens             :       1.37       0.00          1          0          0
  reoptsols        :       0.00       0.00          0          0          0
  repair           :       0.00       0.00          0          0          0
  rins             :       0.00       0.00          0          0          0
  rootsoldiving    :       0.02       0.00          1          0          0
  rounding         :       0.04       0.00        321          0          0
  shiftandpropagate:       0.03       0.00          1          0          0
  shifting         :       0.07       0.00        123          0          0
  simplerounding   :       0.00       0.00          0          0          0
  subnlp           :       0.51       0.00          2          0          0
  trivial          :       0.00       0.00          2          0          0
  trivialnegation  :       0.00       0.00          0          0          0
  trustregion      :       0.00       0.00          0          0          0
  trysol           :       0.00       0.00          0          0          0
  twoopt           :       0.00       0.00          0          0          0
  undercover       :       0.01       0.00          1          0          0
  vbounds          :       0.00       0.00          0          0          0
  veclendiving     :       0.01       0.00          1          0          0
  zeroobj          :       0.00       0.00          0          0          0
  zirounding       :       0.03       0.00        226          0          0
  other solutions  :          -          -          -          0          -
Expressions        :   #IntEval  IntEvalTi   #RevProp  RevPropTi    DomReds    Cutoffs  #Estimate  EstimTime  Branching  #Simplify SimplifyTi Simplified
  abs              :     237859       0.01       3299       0.00        294          0        467       0.00          0       3614       0.00        567
  pow              :     483077       0.08     111721       0.02     109999          0    1715038       0.10     431475       5095       0.00        904
  prod             :     109174       0.03      21284       0.01       3722          0     268966       3.51      70136       6612       0.01       4878
  sum              :     431469       0.11     192736       0.09      96410        192        495       0.00          0      10459       0.01       4347
  val              :          4       0.00          0       0.00          0          0          0       0.00          0          0       0.00          0
  var              :     323032       0.02          0       0.00          0          0          0       0.00          0      10675       0.00       2359
  varidx           :          0       0.00          0       0.00          0          0          0       0.00          0          0       0.00          0
Nlhdlrs            :    Detects  DetectAll DetectTime   #IntEval  IntEvalTi   #RevProp  RevPropTi    DomReds    Cutoffs   #Enforce   EnfoTime       Cuts  Branching
  soc              :        118        118       0.00          0       0.00          0       0.00          0          0      23445       0.03       1062          0
  convex           :         89         89       0.01          0       0.00          0       0.00          0          0       3945       0.01       3753          0
  concave          :         89         89       0.01          0       0.00          0       0.00          0          0     171518       0.15       2439          0
  signomial        :        139        139       0.00          0       0.00          0       0.00          0          0     149359       0.08        869          0
  quotient         :        123        123       0.00          0       0.00          0       0.00          0          0      11436       0.02        238          0
  quadratic        :        225      17569       0.04     249232       0.26      98520       0.17      30035          6          0       0.00          0          0
  default          :       1744      94678       0.01    1187829       0.27     331857       0.47     210425        193    1984544       5.63      53246          0
  bilinear         :        293        293       0.00      48791       0.02      12383       0.04       4517          0     315989       0.07       6632          0
  perspective      :         51         51       0.00          0       0.00          0       0.00          6          0      39857       0.07       1635        104
LP                 :       Time      Calls Iterations  Iter/call   Iter/sec  Time-0-It Calls-0-It    ItLimit
  primal LP        :       2.77       1137          0       0.00       0.00       2.77       1137
  dual LP          :      18.07       8255      87404      10.90    4837.91       0.52        234
  lex dual LP      :       0.00          0          0       0.00          -
  barrier LP       :       0.00          0          0       0.00          -       0.00          0
  resolve instable :       0.00          0          0       0.00          -
  diving/probing LP:       5.37       1058      35109      33.18    6533.94
  strong branching :       0.13         47       1828      38.89   14224.24          -          -          0
    (at root node) :          -         47       1828      38.89          -
  conflict analysis:       0.00          0          0       0.00          -
NLP relaxation     :
  solve time       :       0.70 (1 calls)
  convexity        :  nonconvex (566 linear rows, 3 convex ineq., 160 nonconvex ineq., 287 nonlinear eq. or two-sided ineq.)
NLP Solvers        :  #Problems  ProblemTi    #Solves  SolveTime      #Iter  Time/Iter      #Okay #TimeLimit #IterLimit #LObjLimit #Interrupt  #NumError #EvalError  #OutOfMem #LicenseEr #OtherTerm   #GlobOpt    #LocOpt  #Feasible #LocInfeas #GlobInfea #Unbounded   #Unknown
  ipopt            :         13       0.07         20      30.15       2384       0.01         17          0          3          0          0          0          0          0          0          0          0          9          0          7          0          0          4
B&B Tree           :
  number of runs   :          1
  nodes            :       2148 (1185 internal, 963 leaves)
  feasible leaves  :          0
  infeas. leaves   :        963
  objective leaves :          0
  nodes (total)    :       2148 (1185 internal, 963 leaves)
  nodes left       :          0
  max depth        :         68
  max depth (total):         68
  backtracks       :        599 (27.9%)
  early backtracks :          0 (0.0%)
  nodes exc. ref.  :          0 (0.0%)
  delayed cutoffs  :          0
  repropagations   :          1 (0 domain reductions, 0 cutoffs)
  avg switch length:       3.78
  switching time   :       3.26
Root Node          :
  First LP value   : +0.00000000000000e+00
  First LP Iters   :        713 (34586.47 Iter/sec)
  First LP Time    :       0.02
  Final Dual Bound : +0.00000000000000e+00
  Final Root Iters :       3063
  Root LP Estimate : +3.13966422138463e-03
Solution           :
  Solutions found  :          1 (1 improvements)
  First Solution   : +0.00000000000000e+00   (in run 1, after 2148 nodes, 88.12 seconds, depth 50, found by <mpec>)
  Gap First Sol.   :       0.00 %
  Gap Last Sol.    :       0.00 %
  Primal Bound     : +0.00000000000000e+00   (in run 1, after 2148 nodes, 88.12 seconds, depth 50, found by <mpec>)
  Dual Bound       : +0.00000000000000e+00
  Gap              :       0.00 %
Integrals          :      Total       Avg%
  primal-dual      :    8812.72      99.99
  primal-ref       :          -          - (not evaluated)
  dual-ref         :          -          - (not evaluated)
